tsp_instances/TSP20/instance87.tsp
NODE_COORD_SECTION
0 198 121
1 112 2
2 20 156
3 138 114
4 141 0
5 146 200
6 96 180
7 154 161
8 156 99
9 144 179
10 42 184
11 179 40
12 22 29
13 115 90
14 150 50
15 10 153
16 182 89
17 55 178
18 86 118
19 7 129
