tsp_instances/TSP20/instance87.opt.tour
TOUR_SECTION
1
8
10
6
7
18
11
3
16
20
13
2
5
12
15
14
19
4
9
17
-1